ndtset 1 2 3
acell 2 4 3
angdeg 90 90 90
xred	0	0	0
	0.5	0.5	0.5
	0.25	0.25	0.25
	0.75	0.25	0.75
natom 4
ntypat 1
typat 1 1 1 1
#ndtset 4
#rprim	0 .5 .5
#	.5 0 .5
#	.5 .5 0
