acell 5 5 5

rprim	0 .5 .5
	.5 0 .5
	.5 .5 0

xred	0	0	0
	0.5	0.5	0.5
	0.25	0.25	0.25
	0.75	0.25	0.75

natom 4
ntypat 32
typat 1 1 1 1

	
#angdeg 90 90 90
#ndtset 1 2 3
